c description: Perfect Matching Principle on 
c generator: CNFgen (0.9.0)
c copyright: (C) 2012-2020 Massimo Lauria <massimo.lauria@uniroma1.it>
c url: https://massimolauria.net/cnfgen
c
p cnf 160 1279
-1 -2 0
-1 -3 0
-1 -4 0
-1 -5 0
-1 -6 0
-1 -7 0
-1 -8 0
-1 -9 0
-1 -10 0
-1 -11 0
-1 -12 0
-2 -3 0
-2 -4 0
-2 -5 0
-2 -6 0
-2 -7 0
-2 -8 0
-2 -9 0
-2 -10 0
-2 -11 0
-2 -12 0
-3 -4 0
-3 -5 0
-3 -6 0
-3 -7 0
-3 -8 0
-3 -9 0
-3 -10 0
-3 -11 0
-3 -12 0
-4 -5 0
-4 -6 0
-4 -7 0
-4 -8 0
-4 -9 0
-4 -10 0
-4 -11 0
-4 -12 0
-5 -6 0
-5 -7 0
-5 -8 0
-5 -9 0
-5 -10 0
-5 -11 0
-5 -12 0
-6 -7 0
-6 -8 0
-6 -9 0
-6 -10 0
-6 -11 0
-6 -12 0
-7 -8 0
-7 -9 0
-7 -10 0
-7 -11 0
-7 -12 0
-8 -9 0
-8 -10 0
-8 -11 0
-8 -12 0
-9 -10 0
-9 -11 0
-9 -12 0
-10 -11 0
-10 -12 0
-11 -12 0
1 2 3 4 5 6 7 8 9 10 11 12 0
-13 -14 0
-13 -15 0
-13 -16 0
-13 -17 0
-13 -18 0
-14 -15 0
-14 -16 0
-14 -17 0
-14 -18 0
-15 -16 0
-15 -17 0
-15 -18 0
-16 -17 0
-16 -18 0
-17 -18 0
13 14 15 16 17 18 0
-19 -20 0
-19 -21 0
-19 -22 0
-19 -23 0
-19 -24 0
-19 -25 0
-19 -26 0
-19 -27 0
-20 -21 0
-20 -22 0
-20 -23 0
-20 -24 0
-20 -25 0
-20 -26 0
-20 -27 0
-21 -22 0
-21 -23 0
-21 -24 0
-21 -25 0
-21 -26 0
-21 -27 0
-22 -23 0
-22 -24 0
-22 -25 0
-22 -26 0
-22 -27 0
-23 -24 0
-23 -25 0
-23 -26 0
-23 -27 0
-24 -25 0
-24 -26 0
-24 -27 0
-25 -26 0
-25 -27 0
-26 -27 0
19 20 21 22 23 24 25 26 27 0
-19 -28 0
-19 -29 0
-19 -30 0
-19 -31 0
-19 -32 0
-19 -33 0
-19 -34 0
-28 -29 0
-28 -30 0
-28 -31 0
-28 -32 0
-28 -33 0
-28 -34 0
-29 -30 0
-29 -31 0
-29 -32 0
-29 -33 0
-29 -34 0
-30 -31 0
-30 -32 0
-30 -33 0
-30 -34 0
-31 -32 0
-31 -33 0
-31 -34 0
-32 -33 0
-32 -34 0
-33 -34 0
19 28 29 30 31 32 33 34 0
-35 -36 0
-35 -37 0
-35 -38 0
-35 -39 0
-35 -40 0
-35 -41 0
-36 -37 0
-36 -38 0
-36 -39 0
-36 -40 0
-36 -41 0
-37 -38 0
-37 -39 0
-37 -40 0
-37 -41 0
-38 -39 0
-38 -40 0
-38 -41 0
-39 -40 0
-39 -41 0
-40 -41 0
35 36 37 38 39 40 41 0
-13 -42 0
-13 -43 0
-13 -44 0
-13 -45 0
-13 -46 0
-13 -47 0
-13 -48 0
-13 -49 0
-42 -43 0
-42 -44 0
-42 -45 0
-42 -46 0
-42 -47 0
-42 -48 0
-42 -49 0
-43 -44 0
-43 -45 0
-43 -46 0
-43 -47 0
-43 -48 0
-43 -49 0
-44 -45 0
-44 -46 0
-44 -47 0
-44 -48 0
-44 -49 0
-45 -46 0
-45 -47 0
-45 -48 0
-45 -49 0
-46 -47 0
-46 -48 0
-46 -49 0
-47 -48 0
-47 -49 0
-48 -49 0
13 42 43 44 45 46 47 48 49 0
-1 -50 0
-1 -51 0
-1 -52 0
-1 -53 0
-1 -54 0
-1 -55 0
-50 -51 0
-50 -52 0
-50 -53 0
-50 -54 0
-50 -55 0
-51 -52 0
-51 -53 0
-51 -54 0
-51 -55 0
-52 -53 0
-52 -54 0
-52 -55 0
-53 -54 0
-53 -55 0
-54 -55 0
1 50 51 52 53 54 55 0
-42 -56 0
-42 -57 0
-42 -58 0
-42 -59 0
-42 -60 0
-42 -61 0
-42 -62 0
-56 -57 0
-56 -58 0
-56 -59 0
-56 -60 0
-56 -61 0
-56 -62 0
-57 -58 0
-57 -59 0
-57 -60 0
-57 -61 0
-57 -62 0
-58 -59 0
-58 -60 0
-58 -61 0
-58 -62 0
-59 -60 0
-59 -61 0
-59 -62 0
-60 -61 0
-60 -62 0
-61 -62 0
42 56 57 58 59 60 61 62 0
-63 -64 0
-63 -65 0
-63 -66 0
-63 -67 0
-63 -68 0
-63 -69 0
-63 -70 0
-63 -71 0
-63 -72 0
-63 -73 0
-64 -65 0
-64 -66 0
-64 -67 0
-64 -68 0
-64 -69 0
-64 -70 0
-64 -71 0
-64 -72 0
-64 -73 0
-65 -66 0
-65 -67 0
-65 -68 0
-65 -69 0
-65 -70 0
-65 -71 0
-65 -72 0
-65 -73 0
-66 -67 0
-66 -68 0
-66 -69 0
-66 -70 0
-66 -71 0
-66 -72 0
-66 -73 0
-67 -68 0
-67 -69 0
-67 -70 0
-67 -71 0
-67 -72 0
-67 -73 0
-68 -69 0
-68 -70 0
-68 -71 0
-68 -72 0
-68 -73 0
-69 -70 0
-69 -71 0
-69 -72 0
-69 -73 0
-70 -71 0
-70 -72 0
-70 -73 0
-71 -72 0
-71 -73 0
-72 -73 0
63 64 65 66 67 68 69 70 71 72 73 0
-20 -50 0
-20 -56 0
-20 -63 0
-20 -74 0
-20 -75 0
-20 -76 0
-20 -77 0
-20 -78 0
-20 -79 0
-50 -56 0
-50 -63 0
-50 -74 0
-50 -75 0
-50 -76 0
-50 -77 0
-50 -78 0
-50 -79 0
-56 -63 0
-56 -74 0
-56 -75 0
-56 -76 0
-56 -77 0
-56 -78 0
-56 -79 0
-63 -74 0
-63 -75 0
-63 -76 0
-63 -77 0
-63 -78 0
-63 -79 0
-74 -75 0
-74 -76 0
-74 -77 0
-74 -78 0
-74 -79 0
-75 -76 0
-75 -77 0
-75 -78 0
-75 -79 0
-76 -77 0
-76 -78 0
-76 -79 0
-77 -78 0
-77 -79 0
-78 -79 0
20 50 56 63 74 75 76 77 78 79 0
-43 -74 0
-43 -80 0
-43 -81 0
-43 -82 0
-74 -80 0
-74 -81 0
-74 -82 0
-80 -81 0
-80 -82 0
-81 -82 0
43 74 80 81 82 0
-14 -21 0
-14 -44 0
-14 -51 0
-14 -83 0
-14 -84 0
-14 -85 0
-14 -86 0
-14 -87 0
-14 -88 0
-14 -89 0
-14 -90 0
-14 -91 0
-14 -92 0
-21 -44 0
-21 -51 0
-21 -83 0
-21 -84 0
-21 -85 0
-21 -86 0
-21 -87 0
-21 -88 0
-21 -89 0
-21 -90 0
-21 -91 0
-21 -92 0
-44 -51 0
-44 -83 0
-44 -84 0
-44 -85 0
-44 -86 0
-44 -87 0
-44 -88 0
-44 -89 0
-44 -90 0
-44 -91 0
-44 -92 0
-51 -83 0
-51 -84 0
-51 -85 0
-51 -86 0
-51 -87 0
-51 -88 0
-51 -89 0
-51 -90 0
-51 -91 0
-51 -92 0
-83 -84 0
-83 -85 0
-83 -86 0
-83 -87 0
-83 -88 0
-83 -89 0
-83 -90 0
-83 -91 0
-83 -92 0
-84 -85 0
-84 -86 0
-84 -87 0
-84 -88 0
-84 -89 0
-84 -90 0
-84 -91 0
-84 -92 0
-85 -86 0
-85 -87 0
-85 -88 0
-85 -89 0
-85 -90 0
-85 -91 0
-85 -92 0
-86 -87 0
-86 -88 0
-86 -89 0
-86 -90 0
-86 -91 0
-86 -92 0
-87 -88 0
-87 -89 0
-87 -90 0
-87 -91 0
-87 -92 0
-88 -89 0
-88 -90 0
-88 -91 0
-88 -92 0
-89 -90 0
-89 -91 0
-89 -92 0
-90 -91 0
-90 -92 0
-91 -92 0
14 21 44 51 83 84 85 86 87 88 89 90 91 92 0
-2 -93 0
-2 -94 0
-2 -95 0
-2 -96 0
-2 -97 0
-93 -94 0
-93 -95 0
-93 -96 0
-93 -97 0
-94 -95 0
-94 -96 0
-94 -97 0
-95 -96 0
-95 -97 0
-96 -97 0
2 93 94 95 96 97 0
-3 -15 0
-3 -64 0
-3 -75 0
-3 -80 0
-3 -98 0
-3 -99 0
-3 -100 0
-3 -101 0
-3 -102 0
-3 -103 0
-3 -104 0
-15 -64 0
-15 -75 0
-15 -80 0
-15 -98 0
-15 -99 0
-15 -100 0
-15 -101 0
-15 -102 0
-15 -103 0
-15 -104 0
-64 -75 0
-64 -80 0
-64 -98 0
-64 -99 0
-64 -100 0
-64 -101 0
-64 -102 0
-64 -103 0
-64 -104 0
-75 -80 0
-75 -98 0
-75 -99 0
-75 -100 0
-75 -101 0
-75 -102 0
-75 -103 0
-75 -104 0
-80 -98 0
-80 -99 0
-80 -100 0
-80 -101 0
-80 -102 0
-80 -103 0
-80 -104 0
-98 -99 0
-98 -100 0
-98 -101 0
-98 -102 0
-98 -103 0
-98 -104 0
-99 -100 0
-99 -101 0
-99 -102 0
-99 -103 0
-99 -104 0
-100 -101 0
-100 -102 0
-100 -103 0
-100 -104 0
-101 -102 0
-101 -103 0
-101 -104 0
-102 -103 0
-102 -104 0
-103 -104 0
3 15 64 75 80 98 99 100 101 102 103 104 0
-4 -28 0
-4 -65 0
-4 -83 0
-4 -98 0
-4 -105 0
-4 -106 0
-4 -107 0
-4 -108 0
-28 -65 0
-28 -83 0
-28 -98 0
-28 -105 0
-28 -106 0
-28 -107 0
-28 -108 0
-65 -83 0
-65 -98 0
-65 -105 0
-65 -106 0
-65 -107 0
-65 -108 0
-83 -98 0
-83 -105 0
-83 -106 0
-83 -107 0
-83 -108 0
-98 -105 0
-98 -106 0
-98 -107 0
-98 -108 0
-105 -106 0
-105 -107 0
-105 -108 0
-106 -107 0
-106 -108 0
-107 -108 0
4 28 65 83 98 105 106 107 108 0
-22 -29 0
-22 -45 0
-22 -66 0
-22 -76 0
-22 -93 0
-22 -105 0
-22 -109 0
-22 -110 0
-22 -111 0
-22 -112 0
-22 -113 0
-29 -45 0
-29 -66 0
-29 -76 0
-29 -93 0
-29 -105 0
-29 -109 0
-29 -110 0
-29 -111 0
-29 -112 0
-29 -113 0
-45 -66 0
-45 -76 0
-45 -93 0
-45 -105 0
-45 -109 0
-45 -110 0
-45 -111 0
-45 -112 0
-45 -113 0
-66 -76 0
-66 -93 0
-66 -105 0
-66 -109 0
-66 -110 0
-66 -111 0
-66 -112 0
-66 -113 0
-76 -93 0
-76 -105 0
-76 -109 0
-76 -110 0
-76 -111 0
-76 -112 0
-76 -113 0
-93 -105 0
-93 -109 0
-93 -110 0
-93 -111 0
-93 -112 0
-93 -113 0
-105 -109 0
-105 -110 0
-105 -111 0
-105 -112 0
-105 -113 0
-109 -110 0
-109 -111 0
-109 -112 0
-109 -113 0
-110 -111 0
-110 -112 0
-110 -113 0
-111 -112 0
-111 -113 0
-112 -113 0
22 29 45 66 76 93 105 109 110 111 112 113 0
-30 -84 0
-30 -114 0
-30 -115 0
-30 -116 0
-30 -117 0
-30 -118 0
-84 -114 0
-84 -115 0
-84 -116 0
-84 -117 0
-84 -118 0
-114 -115 0
-114 -116 0
-114 -117 0
-114 -118 0
-115 -116 0
-115 -117 0
-115 -118 0
-116 -117 0
-116 -118 0
-117 -118 0
30 84 114 115 116 117 118 0
-35 -99 0
-35 -106 0
-35 -119 0
-35 -120 0
-35 -121 0
-99 -106 0
-99 -119 0
-99 -120 0
-99 -121 0
-106 -119 0
-106 -120 0
-106 -121 0
-119 -120 0
-119 -121 0
-120 -121 0
35 99 106 119 120 121 0
-16 -23 0
-16 -67 0
-16 -81 0
-16 -85 0
-16 -94 0
-16 -100 0
-16 -114 0
-16 -122 0
-16 -123 0
-16 -124 0
-16 -125 0
-16 -126 0
-23 -67 0
-23 -81 0
-23 -85 0
-23 -94 0
-23 -100 0
-23 -114 0
-23 -122 0
-23 -123 0
-23 -124 0
-23 -125 0
-23 -126 0
-67 -81 0
-67 -85 0
-67 -94 0
-67 -100 0
-67 -114 0
-67 -122 0
-67 -123 0
-67 -124 0
-67 -125 0
-67 -126 0
-81 -85 0
-81 -94 0
-81 -100 0
-81 -114 0
-81 -122 0
-81 -123 0
-81 -124 0
-81 -125 0
-81 -126 0
-85 -94 0
-85 -100 0
-85 -114 0
-85 -122 0
-85 -123 0
-85 -124 0
-85 -125 0
-85 -126 0
-94 -100 0
-94 -114 0
-94 -122 0
-94 -123 0
-94 -124 0
-94 -125 0
-94 -126 0
-100 -114 0
-100 -122 0
-100 -123 0
-100 -124 0
-100 -125 0
-100 -126 0
-114 -122 0
-114 -123 0
-114 -124 0
-114 -125 0
-114 -126 0
-122 -123 0
-122 -124 0
-122 -125 0
-122 -126 0
-123 -124 0
-123 -125 0
-123 -126 0
-124 -125 0
-124 -126 0
-125 -126 0
16 23 67 81 85 94 100 114 122 123 124 125 126 0
-5 -77 0
-5 -86 0
-5 -109 0
-5 -127 0
-5 -128 0
-5 -129 0
-77 -86 0
-77 -109 0
-77 -127 0
-77 -128 0
-77 -129 0
-86 -109 0
-86 -127 0
-86 -128 0
-86 -129 0
-109 -127 0
-109 -128 0
-109 -129 0
-127 -128 0
-127 -129 0
-128 -129 0
5 77 86 109 127 128 129 0
-36 -46 0
-36 -122 0
-36 -130 0
-46 -122 0
-46 -130 0
-122 -130 0
36 46 122 130 0
-24 -57 0
-24 -101 0
-24 -107 0
-24 -131 0
-24 -132 0
-24 -133 0
-24 -134 0
-24 -135 0
-57 -101 0
-57 -107 0
-57 -131 0
-57 -132 0
-57 -133 0
-57 -134 0
-57 -135 0
-101 -107 0
-101 -131 0
-101 -132 0
-101 -133 0
-101 -134 0
-101 -135 0
-107 -131 0
-107 -132 0
-107 -133 0
-107 -134 0
-107 -135 0
-131 -132 0
-131 -133 0
-131 -134 0
-131 -135 0
-132 -133 0
-132 -134 0
-132 -135 0
-133 -134 0
-133 -135 0
-134 -135 0
24 57 101 107 131 132 133 134 135 0
-6 -25 0
-6 -37 0
-6 -58 0
-6 -110 0
-6 -131 0
-6 -136 0
-25 -37 0
-25 -58 0
-25 -110 0
-25 -131 0
-25 -136 0
-37 -58 0
-37 -110 0
-37 -131 0
-37 -136 0
-58 -110 0
-58 -131 0
-58 -136 0
-110 -131 0
-110 -136 0
-131 -136 0
6 25 37 58 110 131 136 0
-7 -59 0
-7 -68 0
-7 -127 0
-7 -137 0
-7 -138 0
-7 -139 0
-7 -140 0
-7 -141 0
-7 -142 0
-59 -68 0
-59 -127 0
-59 -137 0
-59 -138 0
-59 -139 0
-59 -140 0
-59 -141 0
-59 -142 0
-68 -127 0
-68 -137 0
-68 -138 0
-68 -139 0
-68 -140 0
-68 -141 0
-68 -142 0
-127 -137 0
-127 -138 0
-127 -139 0
-127 -140 0
-127 -141 0
-127 -142 0
-137 -138 0
-137 -139 0
-137 -140 0
-137 -141 0
-137 -142 0
-138 -139 0
-138 -140 0
-138 -141 0
-138 -142 0
-139 -140 0
-139 -141 0
-139 -142 0
-140 -141 0
-140 -142 0
-141 -142 0
7 59 68 127 137 138 139 140 141 142 0
-8 -38 0
-8 -119 0
-8 -132 0
-8 -137 0
-8 -143 0
-38 -119 0
-38 -132 0
-38 -137 0
-38 -143 0
-119 -132 0
-119 -137 0
-119 -143 0
-132 -137 0
-132 -143 0
-137 -143 0
8 38 119 132 137 143 0
-9 -31 0
-9 -60 0
-9 -69 0
-9 -87 0
-9 -102 0
-9 -115 0
-9 -123 0
-9 -130 0
-9 -144 0
-9 -145 0
-31 -60 0
-31 -69 0
-31 -87 0
-31 -102 0
-31 -115 0
-31 -123 0
-31 -130 0
-31 -144 0
-31 -145 0
-60 -69 0
-60 -87 0
-60 -102 0
-60 -115 0
-60 -123 0
-60 -130 0
-60 -144 0
-60 -145 0
-69 -87 0
-69 -102 0
-69 -115 0
-69 -123 0
-69 -130 0
-69 -144 0
-69 -145 0
-87 -102 0
-87 -115 0
-87 -123 0
-87 -130 0
-87 -144 0
-87 -145 0
-102 -115 0
-102 -123 0
-102 -130 0
-102 -144 0
-102 -145 0
-115 -123 0
-115 -130 0
-115 -144 0
-115 -145 0
-123 -130 0
-123 -144 0
-123 -145 0
-130 -144 0
-130 -145 0
-144 -145 0
9 31 60 69 87 102 115 123 130 144 145 0
-39 -61 0
-39 -70 0
-39 -88 0
-39 -138 0
-39 -146 0
-61 -70 0
-61 -88 0
-61 -138 0
-61 -146 0
-70 -88 0
-70 -138 0
-70 -146 0
-88 -138 0
-88 -146 0
-138 -146 0
39 61 70 88 138 146 0
-10 -32 0
-10 -95 0
-10 -139 0
-10 -147 0
-10 -148 0
-32 -95 0
-32 -139 0
-32 -147 0
-32 -148 0
-95 -139 0
-95 -147 0
-95 -148 0
-139 -147 0
-139 -148 0
-147 -148 0
10 32 95 139 147 148 0
-33 -52 0
-33 -111 0
-33 -133 0
-33 -149 0
-52 -111 0
-52 -133 0
-52 -149 0
-111 -133 0
-111 -149 0
-133 -149 0
33 52 111 133 149 0
-17 -89 0
-17 -96 0
-17 -120 0
-17 -149 0
-17 -150 0
-17 -151 0
-17 -152 0
-89 -96 0
-89 -120 0
-89 -149 0
-89 -150 0
-89 -151 0
-89 -152 0
-96 -120 0
-96 -149 0
-96 -150 0
-96 -151 0
-96 -152 0
-120 -149 0
-120 -150 0
-120 -151 0
-120 -152 0
-149 -150 0
-149 -151 0
-149 -152 0
-150 -151 0
-150 -152 0
-151 -152 0
17 89 96 120 149 150 151 152 0
-47 -71 0
-47 -153 0
-47 -154 0
-47 -155 0
-71 -153 0
-71 -154 0
-71 -155 0
-153 -154 0
-153 -155 0
-154 -155 0
47 71 153 154 155 0
-48 -53 0
-48 -90 0
-48 -97 0
-48 -108 0
-48 -116 0
-48 -124 0
-48 -128 0
-48 -156 0
-53 -90 0
-53 -97 0
-53 -108 0
-53 -116 0
-53 -124 0
-53 -128 0
-53 -156 0
-90 -97 0
-90 -108 0
-90 -116 0
-90 -124 0
-90 -128 0
-90 -156 0
-97 -108 0
-97 -116 0
-97 -124 0
-97 -128 0
-97 -156 0
-108 -116 0
-108 -124 0
-108 -128 0
-108 -156 0
-116 -124 0
-116 -128 0
-116 -156 0
-124 -128 0
-124 -156 0
-128 -156 0
48 53 90 97 108 116 124 128 156 0
-62 -121 0
-62 -140 0
-62 -150 0
-62 -153 0
-62 -157 0
-121 -140 0
-121 -150 0
-121 -153 0
-121 -157 0
-140 -150 0
-140 -153 0
-140 -157 0
-150 -153 0
-150 -157 0
-153 -157 0
62 121 140 150 153 157 0
-26 -125 0
-26 -141 0
-26 -151 0
-26 -158 0
-125 -141 0
-125 -151 0
-125 -158 0
-141 -151 0
-141 -158 0
-151 -158 0
26 125 141 151 158 0
-34 -40 0
-34 -78 0
-34 -117 0
-34 -129 0
-34 -144 0
-34 -158 0
-40 -78 0
-40 -117 0
-40 -129 0
-40 -144 0
-40 -158 0
-78 -117 0
-78 -129 0
-78 -144 0
-78 -158 0
-117 -129 0
-117 -144 0
-117 -158 0
-129 -144 0
-129 -158 0
-144 -158 0
34 40 78 117 129 144 158 0
-54 -103 0
-54 -112 0
-54 -118 0
-54 -142 0
-54 -147 0
-54 -154 0
-54 -159 0
-54 -160 0
-103 -112 0
-103 -118 0
-103 -142 0
-103 -147 0
-103 -154 0
-103 -159 0
-103 -160 0
-112 -118 0
-112 -142 0
-112 -147 0
-112 -154 0
-112 -159 0
-112 -160 0
-118 -142 0
-118 -147 0
-118 -154 0
-118 -159 0
-118 -160 0
-142 -147 0
-142 -154 0
-142 -159 0
-142 -160 0
-147 -154 0
-147 -159 0
-147 -160 0
-154 -159 0
-154 -160 0
-159 -160 0
54 103 112 118 142 147 154 159 160 0
-72 -79 0
-72 -126 0
-72 -134 0
-72 -146 0
-79 -126 0
-79 -134 0
-79 -146 0
-126 -134 0
-126 -146 0
-134 -146 0
72 79 126 134 146 0
-11 -18 0
-11 -41 0
-11 -73 0
-11 -91 0
-11 -136 0
-11 -152 0
-18 -41 0
-18 -73 0
-18 -91 0
-18 -136 0
-18 -152 0
-41 -73 0
-41 -91 0
-41 -136 0
-41 -152 0
-73 -91 0
-73 -136 0
-73 -152 0
-91 -136 0
-91 -152 0
-136 -152 0
11 18 41 73 91 136 152 0
-12 -55 0
-12 -82 0
-12 -92 0
-12 -104 0
-12 -135 0
-12 -148 0
-12 -159 0
-55 -82 0
-55 -92 0
-55 -104 0
-55 -135 0
-55 -148 0
-55 -159 0
-82 -92 0
-82 -104 0
-82 -135 0
-82 -148 0
-82 -159 0
-92 -104 0
-92 -135 0
-92 -148 0
-92 -159 0
-104 -135 0
-104 -148 0
-104 -159 0
-135 -148 0
-135 -159 0
-148 -159 0
12 55 82 92 104 135 148 159 0
-27 -49 0
-27 -113 0
-27 -143 0
-27 -145 0
-27 -155 0
-27 -156 0
-27 -157 0
-27 -160 0
-49 -113 0
-49 -143 0
-49 -145 0
-49 -155 0
-49 -156 0
-49 -157 0
-49 -160 0
-113 -143 0
-113 -145 0
-113 -155 0
-113 -156 0
-113 -157 0
-113 -160 0
-143 -145 0
-143 -155 0
-143 -156 0
-143 -157 0
-143 -160 0
-145 -155 0
-145 -156 0
-145 -157 0
-145 -160 0
-155 -156 0
-155 -157 0
-155 -160 0
-156 -157 0
-156 -160 0
-157 -160 0
27 49 113 143 145 155 156 157 160 0